
param N = 10;
param a = 1;
param f = 20000;
param Q = 30;
param T = 3000;
param d :
	0	1	2	3	4	5	6	7	8	9	10:=
0	99999	401	102	245	34	22	15	27	338	12	99999
1	401	99999	501	179	369	411	414	374	85	391	0
2	102	501	99999	346	135	100	92	127	439	112	0
3	245	179	346	99999	214	256	259	219	95	236	0
4	34	369	135	214	99999	45	48	10	303	25	0
5	22	411	100	256	45	99999	13	37	348	23	0
6	15	414	92	259	48	13	99999	40	352	26	0
7	27	374	127	219	10	37	40	99999	309	17	0
8	338	85	439	95	303	348	352	309	99999	329	0
9	12	391	112	236	25	23	26	17	329	99999	0
10	99999	0	0	0	0	0	0	0	0	0	99999;






param b :=
1  5
2  6
3  9 
4  25 
5  11
6  13
7  17
8  14
9  15;







